Si bulk
Electronic minimization
   PREC   = Accurate
   EDIFF  = 1e-6 
   ENCUT  = 400 
   NELMIN = 6
   ICHARG = 11

Ionic relaxation
  NSW = 0

DOS related values
  ISMEAR = -5

Added tags
  LORBIT = 11
