Si diamant                              
   1.00000000000000     
     3.8666999340000001    0.0000000000000000    0.0000000000000000
     1.9333499670000001    3.3486603716999999    0.0000000000000000
     1.9333499670000001    1.1162201239000000    3.1571472755999999
   Si
     2
Direct
  0.1250000000000000  0.1250000000000000  0.1250000000000000
  0.8750000000000000  0.8750000000000000  0.8750000000000000
 
  0.00000000E+00  0.00000000E+00  0.00000000E+00
  0.00000000E+00  0.00000000E+00  0.00000000E+00
