kpoints for bandstructure L-G-X-U K-G
 40
line
reciprocal
  0.50000  0.50000  0.50000    1 ! L
  0.00000  0.00000  0.00000    1 ! G

  0.00000  0.00000  0.00000    1 ! G
  0.00000  0.50000  0.50000    1 ! X

  0.00000  0.50000  0.50000    1 ! X
  0.25000  0.62500  0.62500    1 ! U

  0.37500  0.7500   0.37500    1 ! K
  0.00000  0.00000  0.00000    1 ! G
