Si diamant
1.0
        3.8666999340         0.0000000000         0.0000000000
        1.9333499670         3.3486603717         0.0000000000
        1.9333499670         1.1162201239         3.1571472756
   Si
    2
Direct
     0.125000000         0.125000000         0.125000000
     0.875000000         0.875000000         0.875000000
